solution status: optimal solution found
objective value:                                    0
$_8_y                                              24 	(obj:0)
$_8_z                                              22 	(obj:0)
$_3__0_y                                           25 	(obj:0)
$_3__0_z                                           22 	(obj:0)
$_24_y                                             23 	(obj:0)
$_24_z                                             24 	(obj:0)
$_33_y                                             24 	(obj:0)
$_33_z                                             23 	(obj:0)
$_26_y                                             24 	(obj:0)
$_26_z                                             24 	(obj:0)
$_13_y                                             23 	(obj:0)
$_13_z                                             25 	(obj:0)
$_20_y                                             25 	(obj:0)
$_20_z                                             24 	(obj:0)
$_6_y                                              25 	(obj:0)
$_6_z                                              21 	(obj:0)
$_5__0_y                                           25 	(obj:0)
$_5__0_z                                           23 	(obj:0)
$_10_y                                             24 	(obj:0)
$_10_z                                             25 	(obj:0)
$_11_y                                             25 	(obj:0)
$_11_z                                             25 	(obj:0)
